Set parameter Username
Academic license - for non-commercial use only - expires 2024-12-10
Set parameter LazyConstraints to value 1
Set parameter TimeLimit to value 600
Gurobi Optimizer version 10.0.0 build v10.0.0rc2 (linux64)

CPU model: Intel(R) Core(TM) i5-4590 CPU @ 3.30GHz, instruction set [SSE2|AVX|AVX2]
Thread count: 4 physical cores, 4 logical processors, using up to 4 threads

Optimize a model with 10083 rows, 2500 columns and 10832 nonzeros
Model fingerprint: 0x1338ab20
Variable types: 0 continuous, 2500 integer (2500 binary)
Coefficient statistics:
  Matrix range     [1e+00, 1e+00]
  Objective range  [1e+00, 1e+01]
  Bounds range     [1e+00, 1e+00]
  RHS range        [1e+00, 1e+00]
Presolve removed 10000 rows and 0 columns
Presolve time: 0.00s
Presolved: 83 rows, 2500 columns, 832 nonzeros
Variable types: 0 continuous, 2500 integer (2500 binary)

Root relaxation: objective 1.130000e+02, 78 iterations, 0.00 seconds (0.00 work units)

    Nodes    |    Current Node    |     Objective Bounds      |     Work
 Expl Unexpl |  Obj  Depth IntInf | Incumbent    BestBd   Gap | It/Node Time

     0     0  113.00000    0    -          -  113.00000      -     -    1s
     0     0  114.00000    0    -          -  114.00000      -     -    2s
     0     0  115.00000    0    -          -  115.00000      -     -    2s
     0     0  115.50000    0    3          -  115.50000      -     -    2s
     0     0  161.00000    0    -          -  161.00000      -     -    3s
     0     0  161.00000    0    -          -  161.00000      -     -    4s
     0     0  161.00000    0    -          -  161.00000      -     -    4s
     0     0  161.00000    0    -          -  161.00000      -     -    4s
H    0     0                     755.0000000  161.16667  78.7%     -    5s
     0     0  161.16667    0    7  755.00000  161.16667  78.7%     -    5s
     0     0  183.00000    0    -  755.00000  183.00000  75.8%     -   11s
     0     0  183.00000    0    -  755.00000  183.00000  75.8%     -   11s
     0     0  183.00000    0    -  755.00000  183.00000  75.8%     -   12s
     0     0  183.00000    0    -  755.00000  183.00000  75.8%     -   12s
     0     0  183.00000    0    -  755.00000  183.00000  75.8%     -   12s
     0     0  183.00000    0    -  755.00000  183.00000  75.8%     -   13s
     0     0  183.00000    0    -  755.00000  183.00000  75.8%     -   13s
     0     0  183.00000    0    -  755.00000  183.00000  75.8%     -   13s
     0     0  183.00000    0    -  755.00000  183.00000  75.8%     -   14s
     0     0  183.00000    0    -  755.00000  183.00000  75.8%     -   14s
     0     0  183.00000    0    -  755.00000  183.00000  75.8%     -   14s
     0     0  183.00000    0    -  755.00000  183.00000  75.8%     -   15s
     0     0  183.00000    0    -  755.00000  183.00000  75.8%     -   15s
     0     0  183.00000    0    -  755.00000  183.00000  75.8%     -   16s
     0     0  183.00000    0    -  755.00000  183.00000  75.8%     -   16s
     0     0  183.00000    0    -  755.00000  183.00000  75.8%     -   16s
     0     0  183.00000    0    -  755.00000  183.00000  75.8%     -   17s
     0     0  183.00000    0    -  755.00000  183.00000  75.8%     -   17s
H    0     0                     689.0000000  183.00000  73.4%     -   17s
     0     0  183.00000    0    5  689.00000  183.00000  73.4%     -   17s
     0     0  183.00000    0    5  689.00000  183.00000  73.4%     -   23s
     0     0  183.00000    0    -  689.00000  183.00000  73.4%     -   24s
     0     0  183.00000    0    -  689.00000  183.00000  73.4%     -   25s
     0     0  183.00000    0    -  689.00000  183.00000  73.4%     -   25s
     0     0  183.00000    0    -  689.00000  183.00000  73.4%     -   25s
     0     0  183.00000    0    -  689.00000  183.00000  73.4%     -   26s
     0     0  183.00000    0    -  689.00000  183.00000  73.4%     -   26s
     0     0  183.00000    0    -  689.00000  183.00000  73.4%     -   27s
     0     0  183.00000    0    -  689.00000  183.00000  73.4%     -   27s
     0     0  183.00000    0    -  689.00000  183.00000  73.4%     -   27s
     0     0  183.00000    0    -  689.00000  183.00000  73.4%     -   28s
     0     0  183.00000    0    -  689.00000  183.00000  73.4%     -   28s
     0     0  183.00000    0    -  689.00000  183.00000  73.4%     -   28s
     0     0  183.00000    0    -  689.00000  183.00000  73.4%     -   29s
     0     0  183.00000    0    -  689.00000  183.00000  73.4%     -   29s
     0     0  183.00000    0    -  689.00000  183.00000  73.4%     -   29s
     0     0  183.00000    0    -  689.00000  183.00000  73.4%     -   30s
     0     0  183.00000    0    -  689.00000  183.00000  73.4%     -   30s
H    0     0                     642.0000000  183.00000  71.5%     -   31s
     0     0  183.00000    0    6  642.00000  183.00000  71.5%     -   31s
     0     0  183.00000    0    6  642.00000  183.00000  71.5%     -   37s
H    0     2                     628.0000000  183.00000  70.9%     -   39s
     0     2  183.00000    0    6  628.00000  183.00000  70.9%     -   39s
    17     0  183.00000    2    -  628.00000  183.00000  70.9%   2.1   47s
    38     6  183.00000    2    3  628.00000  183.00000  70.9%   2.2   57s
    50    14  183.00000    2    3  628.00000  183.00000  70.9%   2.5   61s
    70     4  183.00000    4    -  628.00000  183.00000  70.9%   2.8   68s
   120     0  183.00000    4    -  628.00000  183.00000  70.9%   3.0   81s
   155     0  183.00000    4    -  628.00000  183.00000  70.9%   3.1   90s
   201     0  183.00000    4    -  628.00000  183.00000  70.9%   3.3   99s
   243     0  183.00000    4    -  628.00000  183.00000  70.9%   3.2  110s
   301    41  183.00000    4    -  628.00000  183.00000  70.9%   3.3  123s
   317     3  183.00000    8    -  628.00000  183.00000  70.9%   3.3  128s
   354    32  183.00000    8    -  628.00000  183.00000  70.9%   3.5  137s
   387     0  183.00000    8    -  628.00000  183.00000  70.9%   3.6  143s
   468     3  183.00000    8    -  628.00000  183.00000  70.9%   3.6  161s
   493    23  183.00000    8    -  628.00000  183.00000  70.9%   3.6  169s
   569     0  183.00000    8    -  628.00000  183.00000  70.9%   3.7  183s
   613    43  183.00000    7    -  628.00000  183.00000  70.9%   3.6  196s
   665     7  183.00000    8    -  628.00000  183.00000  70.9%   3.6  205s
   693    31  183.00000    7    -  628.00000  183.00000  70.9%   3.7  213s
   774     0  183.00000    8    -  628.00000  183.00000  70.9%   3.7  229s
   799    25  183.00000    8    -  628.00000  183.00000  70.9%   3.7  238s
   867    89  183.00000    8    -  628.00000  183.00000  70.9%   3.8  251s
   898     6  183.00000    8    -  628.00000  183.00000  70.9%   3.9  255s
   920    27  183.00000    4    -  628.00000  183.00000  70.9%   3.9  263s
   994    90  183.00000    9    -  628.00000  183.00000  70.9%   4.0  276s
  1052   137  183.00000    8    -  628.00000  183.00000  70.9%   4.1  286s
  1060     0  183.00000   11    -  628.00000  183.00000  70.9%   4.1  290s
  1079    17  183.00000    5    -  628.00000  183.00000  70.9%   4.1  296s
  1098    34  183.00000    9    -  628.00000  183.00000  70.9%   4.2  301s
  1243    26  183.00000   11    -  628.00000  183.00000  70.9%   4.4  325s
  1277    51  183.00000    7    -  628.00000  183.00000  70.9%   4.4  333s
  1294    67  183.00000    7    -  628.00000  183.00000  70.9%   4.4  337s
  1487     8  183.00000   10    -  628.00000  183.00000  70.9%   4.5  367s
  1503    22  183.00000   10    -  628.00000  183.00000  70.9%   4.5  371s
  1535    44  183.00000   10    -  628.00000  183.00000  70.9%   4.5  376s
  1567    71  183.00000    9    3  628.00000  183.00000  70.9%   4.5  382s
  1801    45  183.00000   13    -  628.00000  183.00000  70.9%   4.5  417s
  1815    57  183.00000    9    3  628.00000  183.00000  70.9%   4.5  422s
  1829    70  183.00000    9    -  628.00000  183.00000  70.9%   4.5  428s
  1843    84  183.00000    8    -  628.00000  183.00000  70.9%   4.5  432s
  1857    98  183.00000    5    -  628.00000  183.00000  70.9%   4.5  435s
  1899   135  183.00000    9    3  628.00000  183.00000  70.9%   4.6  444s
  1913   146  183.00000    7    -  628.00000  183.00000  70.9%   4.5  447s
  2075   164  183.00000   10    -  628.00000  183.00000  70.9%   4.6  471s
  2087   173  183.00000   11    -  628.00000  183.00000  70.9%   4.6  475s
  2111   191  183.00000    8    -  628.00000  183.00000  70.9%   4.6  480s
  2135   213  183.00000    9    -  628.00000  183.00000  70.9%   4.6  488s
  2147   225  183.00000    9    -  628.00000  183.00000  70.9%   4.6  491s
  2257   308  183.00000    8    3  628.00000  183.00000  70.9%   4.6  512s
  2312   342  183.00000   14    -  628.00000  183.00000  70.9%   4.6  522s
  2324   354  183.00000   14    6  628.00000  183.00000  70.9%   4.6  525s
  2347   280  183.00000   13    3  628.00000  183.00000  70.9%   4.6  532s
  2358   289  183.00000   11    -  628.00000  183.00000  70.9%   4.7  536s
  2369   298  183.00000    6    3  628.00000  183.00000  70.9%   4.7  540s
  2391   316  183.00000    9    3  628.00000  183.00000  70.9%   4.7  546s
  2413   323  183.00000   12    -  628.00000  183.00000  70.9%   4.7  550s
  2435   343  183.00000   11    -  628.00000  183.00000  70.9%   4.7  555s

Cutting planes:
  User: 2
  MIR: 1
  Lazy constraints: 857

Explored 2784 nodes (13395 simplex iterations) in 616.48 seconds (2.44 work units)
Thread count was 4 (of 4 available processors)

Solution count 4: 628 642 689 755 

Time limit reached
Best objective 6.280000000000e+02, best bound 1.830000000000e+02, gap 70.8599%

User-callback calls 6912, time in user-callback 609.70 sec
